
$ Database file written 2013- 9-10
$ From database: User data 2010. 3.31    
 ELEMENT /-   ELECTRON_GAS              0.0000E+00  0.0000E+00  0.0000E+00!
 ELEMENT VA   VACUUM                    0.0000E+00  0.0000E+00  0.0000E+00!
 ELEMENT CO   HCP_A3                    5.8933E+01  0.0000E+00  0.0000E+00!
 ELEMENT GA   ORTHORHOMBIC_GA           6.9723E+01  5.5731E+03  4.0828E+01!
 ELEMENT NI   FCC_A1                    5.8690E+01  4.7870E+03  2.9796E+01!

 SPECIES GA2                         GA2!

 FUNCTION F6985T     2.98140E+02  +418307.916-34.9920304*T-20.82348*T*LN(T)
     -.00804072*T**2+1.94275E-06*T**3+69435.55*T**(-1);  6.00000E+02  Y
      +417194.563-4.48128666*T-25.91852*T*LN(T)-3.2169625E-04*T**2
     +1.22796583E-08*T**3+69799.8*T**(-1);  1.60000E+03  Y
      +405652.322+60.9499874*T-34.4754*T*LN(T)+.0022698485*T**2
     -1.11742517E-07*T**3+2845478*T**(-1);  5.30000E+03  Y
      +616085.763-445.433806*T+24.5681*T*LN(T)-.00520688*T**2
     +6.847335E-08*T**3-1.3989465E+08*T**(-1);  1.00000E+04  N !
 FUNCTION F9633T     2.98140E+02  +259072.278+88.0130706*T-38.71057*T*LN(T)
     +.01053784*T**2-9.86907833E-07*T**3+338489.2*T**(-1);  6.00000E+02  Y
      +263812.519+33.4871435*T-30.75007*T*LN(T)+.00537745*T**2
     -5.46534E-07*T**3-150942.65*T**(-1);  1.40000E+03  Y
      +270292.501-28.1810494*T-21.9834*T*LN(T)+3.192416E-04*T**2
     -1.46299133E-08*T**3-992093*T**(-1);  6.00000E+03  Y
      +340110.007-140.262257*T-9.704267*T*LN(T)-4.5138725E-04*T**2
     -1.13427367E-08*T**3-68387950*T**(-1);  1.00000E+04  N !
 FUNCTION F9695T     2.98140E+02  +422882.385-36.0787973*T-33.72863*T*LN(T)
     -.009368525*T**2+7.62775167E-07*T**3-19520.385*T**(-1);  1.10000E+03  Y
      +419324.178+8.33965897*T-40.33555*T*LN(T)-.0041854135*T**2
     +2.679565E-08*T**3+312119.6*T**(-1);  2.50000E+03  N !
 FUNCTION GHSERCO    2.98150E+02  +310.241+133.36601*T-25.0861*T*LN(T)
     -.002654739*T**2-1.7348E-07*T**3+72527*T**(-1);  1.76800E+03  Y
      -17197.666+253.28374*T-40.5*T*LN(T)+9.3488E+30*T**(-9);  6.00000E+03  
     N !
 FUNCTION GHSERGA    2.00000E+02  -21312.331+585.263691*T-108.228783*T*LN(T)
     +.227155636*T**2-1.18575257E-04*T**3+439954*T**(-1);  3.02910E+02  Y
      -7055.643+132.73019*T-26.0692906*T*LN(T)+1.506E-04*T**2
     -4.0173E-08*T**3-118332*T**(-1)+1.64547E+23*T**(-9);  4.00000E+03  N !
 FUNCTION GBCCNI     2.98150E+02  +3535.925+114.298*T-22.096*T*LN(T)
     -.0048407*T**2;  1.72800E+03  Y
      -19125.571+275.579*T-43.1*T*LN(T)+1.12754E+31*T**(-9);  3.00000E+03  N 
     !
 FUNCTION GBCCCO     2.98150E+02  +3248.241+132.65221*T-25.0861*T*LN(T)
     -.002654739*T**2-1.7348E-07*T**3+72527*T**(-1);  1.76800E+03  Y
      -14259.666+252.56994*T-40.5*T*LN(T)+9.3488E+30*T**(-9);  6.00000E+03  
     N !
 FUNCTION GBCCGA     2.00000E+02  -16812.331+573.563691*T-108.228783*T*LN(T)
     +.227155636*T**2-1.18575257E-04*T**3+439954*T**(-1);  3.02910E+02  Y
      -2555.643+121.03019*T-26.0692906*T*LN(T)+1.506E-04*T**2
     -4.0173E-08*T**3-118332*T**(-1)+1.64547E+23*T**(-9);  4.00000E+03  N !
 FUNCTION GBCCNIVA   2.00000E+02  -.5*GBCCGA#-.5*GBCCNI#+54030.75-16.5*T
     +GBCCNI#+GBCCGAVA#;  3.00000E+03  N !
 FUNCTION GHSERNI    2.98150E+02  -5179.159+117.854*T-22.096*T*LN(T)
     -.0048407*T**2;  1.72800E+03  Y
      -27840.655+279.135*T-43.1*T*LN(T)+1.12754E+31*T**(-9);  3.00000E+03  N 
     !
 FUNCTION GFCCGA     2.00000E+02  -17512.331+575.063691*T-108.228783*T*LN(T)
     +.227155636*T**2-1.18575257E-04*T**3+439954*T**(-1);  3.02910E+02  Y
      -3255.643+122.53019*T-26.0692906*T*LN(T)+1.506E-04*T**2
     -4.0173E-08*T**3-118332*T**(-1)+1.64547E+23*T**(-9);  4.00000E+03  N !
 FUNCTION GFCCCO     2.98150E+02  +737.832+132.750762*T-25.0861*T*LN(T)
     -.0026547387*T**2-1.7348E-07*T**3+72526.9*T**(-1);  1.76800E+03  Y
      -16770.075+252.668487*T-40.5*T*LN(T)+9.3488E+30*T**(-9);  6.00000E+03  
     N !
 FUNCTION GBCCGAVA   2.00000E+02  +.5*GBCCGA#+5000-.5*T;  3.00000E+03  N !
  16 V1        48000000 -1.2540193E+04
  17 V2        48000000  2.7463418E-01
  18 V3        48000000 -5.0744502E+01
  19 V4        48000000 -5.8198019E+00
  20 V5        48000000  7.8419716E+03
  21 V6        48000000 -4.1351759E+00
  22 V7        48000000 -2.4445144E+04
  23 V8        48000000 -1.7078245E-04
  24 V9        48000000  6.6048054E+04
  25 V10       48000000  3.1626748E+00
  26 V11       48000000 -1.7626070E+00
  27 V12       48000000 -3.8598886E+01
  28 V13       48000000  3.9151840E+01
  29 V14       48000000 -7.4808887E-04
  30 V15       48000000  4.8533555E+03
  31 V16       48000000 -8.3787917E+00
  32 V17       48000000  6.8249650E+01
  33 V18       48000000 -5.2655441E-01
  34 V19       48000000 -1.4588852E+01
  35 V20       48000000  1.7000282E+00
  43 V28       48000000  8.8579004E-01
  44 V29       48000000 -1.1761720E+00
  45 V30       48000000  4.5016285E-01
  46 V31       48000000 -5.3422414E+01
 FUNCTION GFCCNI     298.15 0.0; 6000.00  N !
 FUNCTION UN_ASS 298.15 0; 300 N !

 TYPE_DEFINITION % SEQ *!
 DEFINE_SYSTEM_DEFAULT ELEMENT 2 !
 DEFAULT_COMMAND DEF_SYS_ELEMENT VA /- !


 PHASE GAS:G %  1  1.0  !
    CONSTITUENT GAS:G :CO,GA,GA2 :  !

   PARAMETER G(GAS,CO;0)  2.98150E+02  +F6985T#+R#*T*LN(1E-05*P);   
  6.00000E+03   N REF0 !
   PARAMETER G(GAS,GA;0)  2.98150E+02  +F9633T#+R#*T*LN(1E-05*P);   
  6.00000E+03   N REF0 !
   PARAMETER G(GAS,GA2;0)  2.98150E+02  +F9695T#+R#*T*LN(1E-05*P);   
  6.00000E+03   N REF0 !


 PHASE LIQUID:L %  1  1.0  !
    CONSTITUENT LIQUID:L :CO,GA,NI :  !

   PARAMETER G(LIQUID,CO;0)  2.98150E+02  +15395.278+124.434078*T
  -25.0861*T*LN(T)-.002654739*T**2-1.7348E-07*T**3+72527*T**(-1)
  -2.19801E-21*T**7;  1.76800E+03  Y
   -846.61+243.599944*T-40.5*T*LN(T);  6.00000E+03  N REF1 !
   PARAMETER G(LIQUID,GA;0)  2.00000E+02  -15821.033+567.189696*T
  -108.228783*T*LN(T)+.227155636*T**2-1.18575257E-04*T**3+439954*T**(-1)
  -7.0171E-17*T**7;  3.02910E+02  Y
   -1389.188+114.049043*T-26.0692906*T*LN(T)+1.506E-04*T**2-4.0173E-08*T**3
  -118332*T**(-1);  4.00000E+03  N REF1 !
   PARAMETER G(LIQUID,NI;0)  2.98150E+02  +11235.527+108.457*T
  -22.096*T*LN(T)-.0048407*T**2-3.82318E-21*T**7;  1.72800E+03  Y
   -9549.775+268.598*T-43.1*T*LN(T);  3.00000E+03  N REF1 !
   PARAMETER G(LIQUID,CO,GA;0)  2.98150E+02  -61807+7.985*T;   6.00000E+03   
  N REF0 !
   PARAMETER G(LIQUID,CO,GA;1)  2.98150E+02  12605.5;   6.00000E+03   N REF0 !
   PARAMETER G(LIQUID,CO,GA,NI;0)  2.98150E+02  +V9#+V10#*T;  3.00000E+03  N 
  REF0 !
   PARAMETER G(LIQUID,CO,GA,NI;1)  2.98150E+02  +V24#+V25#*T;   6.00000E+03  
   N REF0 !
   PARAMETER G(LIQUID,CO,GA,NI;2)  2.98150E+02  +V26#+V27#*T;   6.00000E+03  
   N REF0 !
   PARAMETER G(LIQUID,CO,NI;0)  2.98150E+02  1331;   6.00000E+03   N REF2 !
   PARAMETER G(LIQUID,GA,NI;0)  2.00000E+02  -122488.59+35.72*T;  
  3.00000E+03  N REF0 !
   PARAMETER G(LIQUID,GA,NI;1)  2.00000E+02  -29685+14*T;  3.00000E+03  N 
  REF0 !
   PARAMETER G(LIQUID,GA,NI;2)  2.00000E+02  -30751.9+22.1*T;  3.00000E+03  
  N REF0 !


 TYPE_DEFINITION & GES A_P_D BCC_A2 MAGNETIC  -1.0    4.00000E-01 !
 PHASE BCC_A2  %&  2 1   3 !
    CONSTITUENT BCC_A2  :CO,GA,NI : VA :  !

   PARAMETER G(BCC_A2,CO:VA;0)  2.98150E+02  +3248.241+132.65221*T
  -25.0861*T*LN(T)-.002654739*T**2-1.7348E-07*T**3+72527*T**(-1);  
  1.76800E+03  Y
   -14259.666+252.56994*T-40.5*T*LN(T)+9.3488E+30*T**(-9);  6.00000E+03  N 
  REF1 !
   PARAMETER TC(BCC_A2,CO:VA;0)  2.98150E+02  1450;   6.00000E+03   N REF0 !
   PARAMETER BMAGN(BCC_A2,CO:VA;0)  2.98150E+02  1.35;   6.00000E+03   N 
  REF0 !
   PARAMETER G(BCC_A2,GA:VA;0)  2.00000E+02  -16812.331+573.563691*T
  -108.228783*T*LN(T)+.227155636*T**2-1.18575257E-04*T**3+439954*T**(-1);  
  3.02910E+02  Y
   -2555.643+121.03019*T-26.0692906*T*LN(T)+1.506E-04*T**2-4.0173E-08*T**3
  -118332*T**(-1)+1.64547E+23*T**(-9);  4.00000E+03  N REF1 !
   PARAMETER G(BCC_A2,NI:VA;0)  2.98150E+02  +3535.925+114.298*T
  -22.096*T*LN(T)-.0048407*T**2;  1.72800E+03  Y
   -19125.571+275.579*T-43.1*T*LN(T)+1.12754E+31*T**(-9);  3.00000E+03  N 
  REF1 !
   PARAMETER TC(BCC_A2,NI:VA;0)  2.98150E+02  575;  3.00000E+03  N REF0 !
   PARAMETER BMAGN(BCC_A2,NI:VA;0)  2.98150E+02  .85;  3.00000E+03  N REF0 !
   PARAMETER G(BCC_A2,CO,NI:VA;0)  2.98150E+02  2000;   6.00000E+03   N REF0 !
   PARAMETER TC(BCC_A2,CO,NI:VA;0)  2.98150E+02  556;   6.00000E+03   N REF3 !
   PARAMETER TC(BCC_A2,CO,NI:VA;1)  2.98150E+02  -288;   6.00000E+03   N 
  REF3 !
   PARAMETER BMAGN(BCC_A2,CO,NI:VA;0)  2.98150E+02  .474;   6.00000E+03   N 
  REF3 !


 PHASE BCT_A5  %  1  1.0  !
    CONSTITUENT BCT_A5  :GA :  !

   PARAMETER G(BCT_A5,GA;0)  2.00000E+02  -17466.331+575.463691*T
  -108.228783*T*LN(T)+.227155636*T**2-1.18575257E-04*T**3+439954*T**(-1);  
  3.02910E+02  Y
   -3209.643+122.93019*T-26.0692906*T*LN(T)+1.506E-04*T**2-4.0173E-08*T**3
  -118332*T**(-1)+1.64547E+23*T**(-9);  4.00000E+03  N REF1 !


 PHASE BETA  %  2 .5   .5 !
    CONSTITUENT BETA  :CO%,GA%,NI% : CO%,NI%,VA% :  !

   PARAMETER G(BETA,CO:CO;0)  2.98150E+02  +GHSERCO#+2938-.7138*T;   
  6.00000E+03   N REF0 !
   PARAMETER G(BETA,GA:CO;0)  2.98150E+02  +.5*GHSERGA#+.5*GHSERCO#-42125
  +9.519*T;   6.00000E+03   N REF0 !
   PARAMETER G(BETA,NI:CO;0)  2.98150E+02  +V13#+V14#*T+.5*GBCCNI#
  +.5*GBCCCO#;  3.00000E+03  N REF0 !
   PARAMETER G(BETA,CO:NI;0)  2.98150E+02  +V15#+V16#*T+.5*GBCCNI#
  +.5*GBCCCO#;  3.00000E+03  N REF0 !
   PARAMETER G(BETA,GA:NI;0)  2.00000E+02  +.5*GBCCGA#+.5*GBCCNI#-54030.75
  +16.5*T;  3.00000E+03  N REF0 !
   PARAMETER G(BETA,NI:NI;0)  2.00000E+02  +GBCCNI#;  3.00000E+03  N REF0 !
   PARAMETER G(BETA,CO:VA;0)  2.98150E+02  +.5*GHSERCO#+52313-16.5828*T;   
  6.00000E+03   N REF0 !
   PARAMETER G(BETA,GA:VA;0)  2.98150E+02  +.5*GHSERGA#+7250-6.35*T;   
  6.00000E+03   N REF0 !
   PARAMETER G(BETA,NI:VA;0)  2.98150E+02  +GBCCNIVA#;   6.00000E+03   N 
  REF0 !
   PARAMETER G(BETA,CO,GA:CO;0)  2.98150E+02  -11752+3.505*T;   6.00000E+03  
   N REF0 !
   PARAMETER G(BETA,CO,NI:CO;0)  2.98150E+02  +V17#+V18#*T;  3.00000E+03  N 
  REF0 !
   PARAMETER G(BETA,CO:CO,VA;0)  2.98150E+02  -6847+.6913*T;   6.00000E+03   
  N REF0 !
   PARAMETER G(BETA,CO:CO,NI;0)  2.98150E+02  +V19#+V20#*T;  3.00000E+03  N 
  REF0 !
   PARAMETER G(BETA,GA,NI:CO;0)  2.98150E+02  +V3#+V4#*T;  3.00000E+03  N 
  REF0 !
   PARAMETER G(BETA,GA:CO,VA;0)  2.98150E+02  -24462+9.677*T;   6.00000E+03  
   N REF0 !
   PARAMETER G(BETA,CO,GA:NI;0)  2.98150E+02  +V1#+V2#*T;  3.00000E+03  N 
  REF0 !
   PARAMETER G(BETA,GA,NI:NI;0)  2.00000E+02  -8724-2.38*T;  3.00000E+03  N 
  REF0 !
   PARAMETER G(BETA,GA:NI,VA;0)  2.00000E+02  -35016.42+20.31*T;  
  3.00000E+03  N REF0 !
   PARAMETER G(BETA,NI:NI,VA;0)  2.00000E+02  -35016.42+20.31*T;  
  3.00000E+03  N REF0 !
   PARAMETER G(BETA,CO,GA:VA;0)  2.98150E+02  -7557-.3907*T;   6.00000E+03   
  N REF0 !
   PARAMETER G(BETA,GA,NI:VA;0)  2.00000E+02  -8724-2.38*T;  3.00000E+03  N 
  REF0 !


 TYPE_DEFINITION ' GES A_P_D CBCC_A12 MAGNETIC  -3.0    2.80000E-01 !
 PHASE CBCC_A12  %'  2 1   1 !
    CONSTITUENT CBCC_A12  :CO,NI : VA :  !

   PARAMETER G(CBCC_A12,CO:VA;0)  2.98150E+02  +4465.241+133.36601*T
  -25.0861*T*LN(T)-.002654739*T**2-1.7348E-07*T**3+72527*T**(-1);  
  1.76800E+03  Y
   -13042.666+253.28374*T-40.5*T*LN(T)+9.3488E+30*T**(-9);  6.00000E+03  N 
  REF1 !
   PARAMETER G(CBCC_A12,NI:VA;0)  2.98150E+02  -1623.159+117.854*T
  -22.096*T*LN(T)-.0048407*T**2;  1.72800E+03  Y
   -24284.655+279.135*T-43.1*T*LN(T)+1.12754E+31*T**(-9);  3.00000E+03  N 
  REF1 !


 PHASE COGA3  %  2 1   3 !
    CONSTITUENT COGA3  :CO : GA :  !

   PARAMETER G(COGA3,CO:GA;0)  2.98150E+02  +GHSERCO#+3*GHSERGA#-123081.3
  +12.1742502*T;   6.00000E+03   N REF0 !


 PHASE CUB_A13  %  2 1   1 !
    CONSTITUENT CUB_A13  :CO,NI : VA :  !

   PARAMETER G(CUB_A13,CO:VA;0)  2.98150E+02  +3465.241+133.36601*T
  -25.0861*T*LN(T)-.002654739*T**2-1.7348E-07*T**3+72527*T**(-1);  
  1.76800E+03  Y
   -14042.666+253.28374*T-40.5*T*LN(T)+9.3488E+30*T**(-9);  6.00000E+03  N 
  REF1 !
   PARAMETER G(CUB_A13,NI:VA;0)  2.98150E+02  -3087.159+117.854*T
  -22.096*T*LN(T)-.0048407*T**2;  1.72800E+03  Y
   -25748.655+279.135*T-43.1*T*LN(T)+1.12754E+31*T**(-9);  3.00000E+03  N 
  REF1 !


 TYPE_DEFINITION ( GES A_P_D FCC_A1 MAGNETIC  -3.0    2.80000E-01 !
 PHASE FCC_A1  %(  2 1   1 !
    CONSTITUENT FCC_A1  :CO,GA,NI : VA :  !

   PARAMETER G(FCC_A1,CO:VA;0)  2.98150E+02  +737.832+132.750762*T
  -25.0861*T*LN(T)-.002654739*T**2-1.7348E-07*T**3+72527*T**(-1);  
  1.76800E+03  Y
   -16770.075+252.668487*T-40.5*T*LN(T)+9.3488E+30*T**(-9);  6.00000E+03  N 
  REF1 !
   PARAMETER TC(FCC_A1,CO:VA;0)  2.98150E+02  1396;   6.00000E+03   N REF0 !
   PARAMETER BMAGN(FCC_A1,CO:VA;0)  2.98150E+02  1.35;   6.00000E+03   N 
  REF0 !
   PARAMETER G(FCC_A1,GA:VA;0)  2.00000E+02  -17512.331+575.063691*T
  -108.228783*T*LN(T)+.227155636*T**2-1.18575257E-04*T**3+439954*T**(-1);  
  3.02910E+02  Y
   -3255.643+122.53019*T-26.0692906*T*LN(T)+1.506E-04*T**2-4.0173E-08*T**3
  -118332*T**(-1)+1.64547E+23*T**(-9);  4.00000E+03  N REF1 !
   PARAMETER G(FCC_A1,NI:VA;0)  2.98150E+02  +GHSERNI#;  3.00000E+03  N REF1 !
   PARAMETER TC(FCC_A1,NI:VA;0)  2.98150E+02  633;  3.00000E+03  N REF0 !
   PARAMETER BMAGN(FCC_A1,NI:VA;0)  2.98150E+02  .52;  3.00000E+03  N REF0 !
   PARAMETER G(FCC_A1,CO,GA:VA;0)  2.98150E+02  -125202.28+54.131*T;   
  6.00000E+03   N REF0 !
   PARAMETER G(FCC_A1,CO,GA:VA;1)  2.98150E+02  +30657-25.625*T;   
  6.00000E+03   N REF0 !
   PARAMETER G(FCC_A1,CO,GA,NI:VA;0)  2.98150E+02  +V11#+V12#*T;  
  3.00000E+03  N REF0 !
   PARAMETER G(FCC_A1,CO,GA,NI:VA;1)  2.98150E+02  +V28#+V29#*T;  
  3.00000E+03  N REF0 !
   PARAMETER G(FCC_A1,CO,GA,NI:VA;2)  2.98150E+02  +V30#+V31#*T;  
  3.00000E+03  N REF0 !
   PARAMETER G(FCC_A1,CO,NI:VA;0)  2.98150E+02  -800+1.2629*T;   6.00000E+03 
    N REF2 !
   PARAMETER TC(FCC_A1,CO,NI:VA;0)  2.98150E+02  411;   6.00000E+03   N REF2 !
   PARAMETER TC(FCC_A1,CO,NI:VA;1)  2.98150E+02  -99;   6.00000E+03   N REF2 !
   PARAMETER BMAGN(FCC_A1,CO,NI:VA;0)  2.98150E+02  1.046;   6.00000E+03   N 
  REF2 !
   PARAMETER BMAGN(FCC_A1,CO,NI:VA;1)  2.98150E+02  .165;   6.00000E+03   N 
  REF2 !
   PARAMETER G(FCC_A1,GA,NI:VA;0)  2.00000E+02  -130526+40*T;  3.00000E+03  
  N REF0 !


 PHASE HCP_A3  %  2 1   .5 !
    CONSTITUENT HCP_A3  :CO,GA,NI : VA :  !

   PARAMETER G(HCP_A3,CO:VA;0)  2.98150E+02  +GHSERCO#;   6.00000E+03   N 
  REF1 !
   PARAMETER TC(HCP_A3,CO:VA;0)  2.98150E+02  1396;   6.00000E+03   N REF0 !
   PARAMETER BMAGN(HCP_A3,CO:VA;0)  2.98150E+02  1.35;   6.00000E+03   N 
  REF0 !
   PARAMETER G(HCP_A3,GA:VA;0)  2.00000E+02  -16812.331+575.763691*T
  -108.228783*T*LN(T)+.227155636*T**2-1.18575257E-04*T**3+439954*T**(-1);  
  3.02910E+02  Y
   -2555.643+123.23019*T-26.0692906*T*LN(T)+1.506E-04*T**2-4.0173E-08*T**3
  -118332*T**(-1)+1.64547E+23*T**(-9);  4.00000E+03  N REF1 !
   PARAMETER G(HCP_A3,NI:VA;0)  2.98150E+02  -4133.159+119.109*T
  -22.096*T*LN(T)-.0048407*T**2;  1.72800E+03  Y
   -26794.655+280.39*T-43.1*T*LN(T)+1.12754E+31*T**(-9);  3.00000E+03  N 
  REF1 !
   PARAMETER G(HCP_A3,CO,GA:VA;0)  2.98150E+02  -87051+22.438*T;   
  6.00000E+03   N REF0 !
   PARAMETER G(HCP_A3,CO,NI:VA;0)  2.98150E+02  -1620-.385*T;   6.00000E+03  
   N REF2 !
   PARAMETER TC(HCP_A3,CO,NI:VA;0)  2.98150E+02  411;   6.00000E+03   N REF2 !
   PARAMETER TC(HCP_A3,CO,NI:VA;1)  2.98150E+02  -99;   6.00000E+03   N REF2 !
   PARAMETER BMAGN(HCP_A3,CO,NI:VA;0)  2.98150E+02  1.046;   6.00000E+03   N 
  REF2 !
   PARAMETER BMAGN(HCP_A3,CO,NI:VA;1)  2.98150E+02  .165;   6.00000E+03   N 
  REF2 !


 PHASE NI2GA3  %  2 .4   .6 !
    CONSTITUENT NI2GA3  :NI : GA :  !

   PARAMETER G(NI2GA3,NI:GA;0)  2.00000E+02  +.4*GHSERNI#+.6*GHSERGA#
  -47426.09+8.94*T;  3.00000E+03  N REF0 !


 TYPE_DEFINITION ) GES A_P_D NI3GA MAGNETIC  -3.0    2.80000E-01 !
 PHASE NI3GA  %)  3 .75   .25   1 !
    CONSTITUENT NI3GA  :CO,GA,NI : CO,GA,NI : VA :  !

   PARAMETER G(NI3GA,CO:CO:VA;0)  2.98140E+02  +GFCCCO#;  3.00000E+03  N 
  REF0 !
   PARAMETER G(NI3GA,GA:CO:VA;0)  2.98150E+02  +9116.964+V22#*T+.25*GHSERCO#
  +.75*GHSERGA#;  3.00000E+03  N REF0 !
       PARA G(NI3GA,NI:CO:VA;0) 298.15 0; 6000 N!
   PARAMETER G(NI3GA,CO:GA:VA;0)  2.98150E+02  -5758.22+V21#*T+.75*GHSERCO#
  +.25*GHSERGA#;  3.00000E+03  N REF0 !
   PARAMETER G(NI3GA,GA:GA:VA;0)  2.00000E+02  +GFCCGA#;  3.00000E+03  N 
  REF0 !
   PARAMETER G(NI3GA,NI:GA:VA;0)  2.98140E+02  -27789+5.24*T+.75*GHSERNI#
  +.25*GFCCGA#;  3.00000E+03  N REF0 !
   PARAMETER G(NI3GA,CO:NI:VA;0)  2.98150E+02  +314+.75*GHSERCO#
  +.25*GHSERNI#;  3.00000E+03  N REF0 !
   PARAMETER G(NI3GA,GA:NI:VA;0)  2.98150E+02  +3200+V23#*T+.25*GHSERNI#
  +.75*GFCCGA#;  3.00000E+03  N REF0 !
   PARAMETER G(NI3GA,NI:NI:VA;0)  2.00000E+02  +GHSERNI#;  3.00000E+03  N 
  REF0 !
   PARAMETER G(NI3GA,CO,NI:GA:VA;0)  2.98150E+02  +V7#+V8#*T;  3.00000E+03  
  N REF0 !
   PARAMETER G(NI3GA,GA,NI:*:VA;0)  2.00000E+02  -25578+3*T;  3.00000E+03  N 
  REF0 !
   PARAMETER G(NI3GA,GA,NI:*:VA;1)  2.00000E+02  +14040-8*T;  3.00000E+03  N 
  REF0 !
   PARAMETER G(NI3GA,*:GA,NI:VA;0)  2.00000E+02  0.0 ;  3.00000E+03  N REF0 !
   PARAMETER G(NI3GA,*:GA,NI:VA;1)  2.98150E+02  +V5#+V6#*T;  3.00000E+03  N 
  REF0 !


 PHASE NI3GA2  %  2 .6   .4 !
    CONSTITUENT NI3GA2  :CO,NI : GA :  !

       PARA G(NI3GA2,CO:GA;0) 298.15 0; 6000 N!
   PARAMETER G(NI3GA2,NI:GA;0)  2.00000E+02  +.6*GHSERNI#+.4*GHSERGA#
  -39753.31+5.55*T;  3.00000E+03  N REF0 !


 PHASE NI3GA4  %  2 .43   .57 !
    CONSTITUENT NI3GA4  :NI : GA :  !

   PARAMETER G(NI3GA4,NI:GA;0)  2.00000E+02  +.43*GHSERNI#+.57*GHSERGA#
  -47790.8+9.04*T;  3.00000E+03  N REF0 !


 PHASE NI5GA3  %  2 .63   .37 !
    CONSTITUENT NI5GA3  :CO,NI : GA :  !

   PARAMETER G(NI5GA3,CO:GA;0)  2.98150E+02  -15746.6+.63*GHSERCO#
  +.37*GHSERGA#;  3.00000E+03  N REF0 !
   PARAMETER G(NI5GA3,NI:GA;0)  2.00000E+02  +.63*GHSERNI#+.37*GHSERGA#
  -37658.61+5.34*T;  3.00000E+03  N REF0 !


 PHASE NIGA4  %  2 .2   .8 !
    CONSTITUENT NIGA4  :NI : GA :  !

   PARAMETER G(NIGA4,NI:GA;0)  2.00000E+02  +.2*GHSERNI#+.8*GHSERGA#
  -24367.51-2.71*T;  3.00000E+03  N REF0 !


 PHASE ORTHORHOMBIC_GA  %  1  1.0  !
    CONSTITUENT ORTHORHOMBIC_GA  :GA :  !

   PARAMETER G(ORTHORHOMBIC_GA,GA;0)  2.00000E+02  +GHSERGA#;  4.00000E+03  
  N REF1 !


 PHASE TETRAGONAL_A6  %  1  1.0  !
    CONSTITUENT TETRAGONAL_A6  :GA :  !

   PARAMETER G(TETRAGONAL_A6,GA;0)  2.00000E+02  -17812.331+575.263691*T
  -108.228783*T*LN(T)+.227155636*T**2-1.18575257E-04*T**3+439954*T**(-1);  
  3.02910E+02  Y
   -3555.643+122.73019*T-26.0692906*T*LN(T)+1.506E-04*T**2-4.0173E-08*T**3
  -118332*T**(-1)+1.64547E+23*T**(-9);  4.00000E+03  N REF1 !

 LIST_OF_REFERENCES
 NUMBER  SOURCE
   REF1   'PURE4 - SGTE Pure Elements (Unary) Database (Version 4.6), 
         developed by SGTE (Scientific Group Thermodata Europe), 1991-2008, 
         and provided by TCSAB (Jan. 2008). '
   REF2   ' REF26 '
   REF3   '
  ! 

